NAME : local_8
TYPE : ATSP
DIMENSION : 40
EDGE_WEIGHT_TYPE : EXPLICIT
EDGE_WEIGHT_FORMAT : FULL_MATRIX
EDGE_WEIGHT_SECTION
0 10000000 924 10000000 10000000 910 1046 949 10000000 655 917 10000000 400 10000000 969 10000000 10000000 10000000 260 462 10000000 10000000 10000000 10000000 10000000 642 10000000 10000000 467 10000000 10000000 10000000 603 904 323 10000000 985 10000000 785 10000000 
0 0 604 748 731 10000000 10000000 10000000 618 10000000 10000000 878 10000000 10000000 10000000 10000000 10000000 956 10000000 10000000 10000000 10000000 10000000 388 10000000 10000000 576 10000000 10000000 10000000 10000000 10000000 814 726 10000000 511 10000000 446 849 10000000 
0 604 0 10000000 10000000 10000000 10000000 10000000 10000000 10000000 10000000 10000000 10000000 10000000 10000000 10000000 10000000 10000000 776 10000000 10000000 10000000 10000000 717 10000000 804 10000000 10000000 10000000 10000000 10000000 10000000 425 470 760 849 10000000 755 338 10000000 
0 748 10000000 0 210 941 734 845 384 10000000 10000000 681 10000000 10000000 10000000 10000000 10000000 229 10000000 10000000 10000000 10000000 10000000 930 826 10000000 234 10000000 10000000 980 601 10000000 10000000 10000000 10000000 967 993 950 10000000 10000000 
0 731 10000000 210 0 976 770 10000000 540 10000000 10000000 868 10000000 10000000 10000000 10000000 10000000 379 10000000 10000000 10000000 10000000 10000000 990 10000000 10000000 362 10000000 10000000 10000000 636 10000000 10000000 10000000 10000000 10000000 10000000 10000000 10000000 10000000 
0 10000000 10000000 969 1025 0 213 694 10000000 10000000 985 10000000 10000000 10000000 10000000 10000000 10000000 748 10000000 10000000 10000000 10000000 10000000 10000000 10000000 10000000 10000000 10000000 514 10000000 437 10000000 10000000 10000000 10000000 10000000 870 10000000 10000000 10000000 
0 10000000 10000000 734 770 213 0 729 10000000 10000000 10000000 10000000 10000000 10000000 10000000 10000000 10000000 584 10000000 10000000 10000000 10000000 10000000 10000000 10000000 10000000 994 10000000 631 10000000 247 10000000 10000000 10000000 10000000 10000000 922 10000000 10000000 10000000 
0 10000000 10000000 845 10000000 694 729 0 863 10000000 458 788 844 859 844 10000000 10000000 683 10000000 1039 10000000 10000000 10000000 10000000 759 10000000 897 652 837 698 753 10000000 10000000 10000000 10000000 10000000 202 10000000 10000000 10000000 
0 618 10000000 384 540 10000000 10000000 863 0 10000000 10000000 352 10000000 10000000 10000000 810 957 518 10000000 10000000 10000000 10000000 10000000 639 525 10000000 182 10000000 10000000 729 928 10000000 10000000 10000000 10000000 637 941 644 10000000 10000000 
0 10000000 10000000 10000000 10000000 10000000 10000000 10000000 10000000 0 861 10000000 331 10000000 619 10000000 10000000 10000000 488 194 10000000 10000000 555 10000000 10000000 321 10000000 10000000 10000000 10000000 10000000 970 701 772 886 10000000 10000000 10000000 860 556 
0 10000000 10000000 10000000 10000000 985 10000000 458 10000000 861 0 1052 663 593 432 10000000 10000000 10000000 10000000 818 10000000 1044 967 10000000 920 10000000 10000000 422 918 791 10000000 10000000 10000000 10000000 10000000 10000000 302 10000000 10000000 10000000 
0 878 10000000 681 868 10000000 10000000 788 352 10000000 1052 0 10000000 10000000 10000000 478 678 723 10000000 10000000 10000000 915 10000000 740 177 10000000 527 942 10000000 401 10000000 10000000 10000000 10000000 10000000 675 793 714 10000000 10000000 
0 10000000 10000000 10000000 10000000 10000000 10000000 844 10000000 331 663 10000000 0 10000000 593 10000000 10000000 10000000 368 184 10000000 10000000 791 10000000 10000000 501 10000000 961 732 10000000 10000000 10000000 719 896 699 10000000 797 10000000 912 865 
0 10000000 10000000 10000000 10000000 10000000 10000000 859 10000000 10000000 593 10000000 10000000 0 574 1014 10000000 10000000 10000000 10000000 517 518 948 10000000 904 10000000 10000000 207 10000000 694 10000000 845 10000000 10000000 10000000 10000000 661 10000000 10000000 10000000 
0 10000000 10000000 10000000 10000000 10000000 10000000 844 10000000 619 432 10000000 593 574 0 10000000 10000000 10000000 955 673 773 1056 547 10000000 10000000 927 10000000 532 10000000 1001 10000000 734 10000000 10000000 10000000 10000000 676 10000000 10000000 10000000 
0 10000000 10000000 10000000 10000000 10000000 10000000 10000000 810 10000000 10000000 478 10000000 1004 10000000 0 291 10000000 10000000 10000000 10000000 578 10000000 933 366 10000000 991 965 10000000 411 10000000 10000000 10000000 10000000 10000000 814 993 883 10000000 10000000 
0 10000000 10000000 10000000 10000000 10000000 10000000 10000000 957 10000000 10000000 678 10000000 10000000 10000000 291 0 10000000 10000000 10000000 10000000 725 10000000 878 613 10000000 10000000 10000000 10000000 686 10000000 10000000 10000000 10000000 10000000 744 10000000 821 10000000 1094 
0 956 10000000 229 379 748 584 683 518 10000000 10000000 723 10000000 10000000 10000000 10000000 10000000 0 10000000 10000000 10000000 10000000 10000000 10000000 832 10000000 422 10000000 10000000 938 428 10000000 10000000 10000000 10000000 10000000 852 10000000 10000000 10000000 
0 10000000 776 10000000 10000000 10000000 10000000 10000000 10000000 488 10000000 10000000 368 10000000 955 10000000 10000000 10000000 0 314 10000000 10000000 10000000 1062 10000000 392 10000000 10000000 725 10000000 10000000 10000000 392 671 403 10000000 10000000 1076 581 863 
0 10000000 10000000 10000000 10000000 10000000 10000000 1044 10000000 194 818 10000000 184 10000000 673 10000000 10000000 10000000 314 0 10000000 10000000 733 10000000 10000000 323 10000000 10000000 868 10000000 10000000 10000000 602 750 705 10000000 950 10000000 783 697 
0 10000000 10000000 10000000 10000000 10000000 10000000 10000000 10000000 10000000 10000000 10000000 10000000 517 762 10000000 10000000 10000000 10000000 10000000 0 516 780 10000000 10000000 10000000 10000000 702 10000000 1085 10000000 473 10000000 10000000 10000000 10000000 10000000 10000000 10000000 10000000 
0 10000000 10000000 10000000 10000000 10000000 10000000 10000000 10000000 10000000 1030 915 10000000 518 979 578 725 10000000 10000000 10000000 516 0 10000000 10000000 741 10000000 10000000 629 10000000 565 10000000 874 10000000 10000000 10000000 10000000 1056 10000000 10000000 10000000 
0 10000000 10000000 10000000 10000000 10000000 10000000 10000000 10000000 555 967 10000000 791 951 547 10000000 10000000 10000000 10000000 733 780 10000000 0 10000000 10000000 814 10000000 1014 10000000 10000000 10000000 436 10000000 10000000 10000000 10000000 10000000 10000000 10000000 690 
0 388 717 930 990 10000000 10000000 10000000 639 10000000 10000000 740 10000000 10000000 10000000 933 878 10000000 1028 10000000 10000000 10000000 10000000 0 867 920 706 10000000 10000000 10000000 10000000 10000000 793 566 10000000 141 10000000 216 839 955 
0 10000000 10000000 826 10000000 10000000 10000000 759 525 10000000 922 177 10000000 904 10000000 366 613 832 10000000 10000000 10000000 741 10000000 867 0 10000000 694 799 10000000 231 10000000 10000000 10000000 10000000 10000000 789 723 833 10000000 10000000 
0 10000000 804 10000000 10000000 10000000 10000000 10000000 10000000 321 10000000 10000000 501 10000000 927 10000000 10000000 10000000 392 323 10000000 10000000 814 954 10000000 0 10000000 10000000 10000000 10000000 10000000 10000000 416 469 764 990 10000000 939 552 473 
0 576 10000000 234 362 10000000 1040 897 182 10000000 10000000 527 10000000 10000000 10000000 991 10000000 422 10000000 10000000 10000000 10000000 10000000 706 694 10000000 0 10000000 10000000 885 815 10000000 10000000 10000000 10000000 735 10000000 724 10000000 10000000 
0 10000000 10000000 10000000 10000000 10000000 10000000 652 10000000 10000000 422 942 961 207 532 974 10000000 10000000 10000000 10000000 702 615 1017 10000000 799 10000000 10000000 0 10000000 600 10000000 997 10000000 10000000 10000000 10000000 454 10000000 10000000 10000000 
0 10000000 10000000 10000000 10000000 514 631 837 10000000 10000000 918 10000000 732 10000000 10000000 10000000 10000000 10000000 725 868 10000000 10000000 10000000 10000000 10000000 10000000 10000000 10000000 0 10000000 859 10000000 10000000 10000000 590 10000000 938 10000000 10000000 10000000 
0 10000000 10000000 980 10000000 10000000 10000000 698 729 10000000 791 401 10000000 694 979 411 686 938 10000000 10000000 1108 565 10000000 10000000 231 10000000 885 600 10000000 0 10000000 10000000 10000000 10000000 10000000 999 615 10000000 10000000 10000000 
0 10000000 10000000 601 636 437 247 753 928 10000000 10000000 10000000 10000000 10000000 10000000 10000000 10000000 428 10000000 10000000 10000000 10000000 10000000 10000000 10000000 10000000 815 10000000 859 10000000 0 10000000 10000000 10000000 10000000 10000000 954 10000000 10000000 10000000 
0 10000000 10000000 10000000 10000000 10000000 10000000 10000000 10000000 970 10000000 10000000 10000000 845 734 10000000 10000000 10000000 10000000 10000000 473 928 436 10000000 10000000 10000000 10000000 1000 10000000 10000000 10000000 0 10000000 10000000 10000000 10000000 10000000 10000000 10000000 10000000 
0 814 425 10000000 10000000 10000000 10000000 10000000 10000000 701 10000000 10000000 719 10000000 10000000 10000000 10000000 10000000 392 602 10000000 10000000 10000000 793 10000000 416 10000000 10000000 10000000 10000000 10000000 10000000 0 362 537 887 10000000 802 201 805 
0 726 470 10000000 10000000 10000000 10000000 10000000 10000000 772 10000000 10000000 896 10000000 10000000 10000000 10000000 10000000 671 750 10000000 10000000 10000000 566 10000000 469 10000000 10000000 10000000 10000000 10000000 10000000 362 0 889 641 10000000 564 356 632 
0 10000000 760 10000000 10000000 10000000 10000000 10000000 10000000 886 10000000 10000000 699 10000000 10000000 10000000 10000000 10000000 403 705 10000000 10000000 10000000 10000000 10000000 764 10000000 10000000 590 10000000 10000000 10000000 537 889 0 10000000 10000000 10000000 662 10000000 
0 511 849 967 10000000 10000000 10000000 10000000 637 10000000 10000000 675 10000000 10000000 10000000 814 744 10000000 10000000 10000000 10000000 10000000 10000000 141 789 941 735 10000000 10000000 999 10000000 10000000 887 641 10000000 0 10000000 171 942 934 
0 10000000 10000000 993 10000000 870 922 202 941 10000000 302 793 797 661 676 993 10000000 852 10000000 947 10000000 1045 10000000 10000000 723 10000000 10000000 454 938 615 954 10000000 10000000 10000000 10000000 10000000 0 10000000 10000000 10000000 
0 446 755 950 10000000 10000000 10000000 10000000 644 10000000 10000000 714 10000000 10000000 10000000 883 821 10000000 1052 10000000 10000000 10000000 10000000 216 833 904 724 10000000 10000000 10000000 10000000 10000000 802 564 10000000 171 10000000 0 853 913 
0 849 338 10000000 10000000 10000000 10000000 10000000 10000000 860 10000000 10000000 912 10000000 10000000 10000000 10000000 10000000 581 783 10000000 10000000 10000000 839 10000000 552 10000000 10000000 10000000 10000000 10000000 10000000 201 356 662 942 10000000 853 0 860 
0 10000000 10000000 10000000 10000000 10000000 10000000 10000000 10000000 10000000 10000000 10000000 10000000 10000000 10000000 10000000 10000000 10000000 10000000 10000000 10000000 10000000 10000000 10000000 10000000 10000000 10000000 10000000 10000000 10000000 10000000 10000000 10000000 10000000 10000000 10000000 10000000 10000000 10000000 0 
EOF